p cnf 15 27
9 4 -15 6 0
-15 0
2 0
8 1 0
-15 -5 -12 6 0
-4 -3 -10 0
12 14 -2 0
-11 0
13 -4 -3 -2 0
-4 0
-7 2 -5 15 0
7 0
-13 -9 0
13 -3 0
10 0
9 0
-15 -14 12 0
-15 -6 11 0
7 0
11 0
-2 0
6 0
-15 10 -12 13 0
11 7 0
13 15 0
14 -2 0
-6 -5 12 -10 0
